56 55 54 50 49 48 47 44 43 42 39 40 41 556 557 35 38 37 36 33 34 32 30 29 28 27 26 25 24 21 31 22 23 12 13 14 15 16 11 10 9 3 2 1 4 0 5 573 572 6 7 8 17 18 19 20 568 569 570 571 468 467 466 465 464 496 497 498 501 500 499 453 452 461 462 463 460 459 458 457 456 455 454 439 438 437 436 435 434 433 432 430 431 429 428 427 426 425 424 423 422 421 420 419 417 418 410 411 412 356 402 401 403 404 405 409 384 383 385 382 386 387 408 407 406 400 399 398 397 388 389 390 392 391 393 394 371 372 396 395 375 376 377 378 379 380 381 445 444 443 442 446 447 448 449 440 441 450 451 502 503 504 505 308 309 310 311 312 313 316 314 315 374 373 322 323 324 325 326 327 328 329 366 342 365 367 368 369 370 364 363 362 361 360 359 358 357 355 354 353 413 414 416 415 352 351 350 349 348 347 346 345 344 343 341 340 330 331 332 333 339 338 337 336 335 334 283 284 285 286 287 280 281 282 279 278 277 276 288 289 290 291 292 275 274 273 272 271 267 268 269 270 293 294 295 296 297 321 320 319 317 318 305 306 304 303 307 506 507 508 302 301 300 258 299 298 266 265 264 263 262 261 260 259 257 256 255 253 254 252 251 250 249 248 241 242 243 244 245 247 246 238 239 240 237 236 235 234 232 233 530 531 532 533 231 230 229 228 227 189 225 226 190 191 192 193 219 218 220 221 222 224 223 217 216 215 214 213 212 211 210 209 194 195 196 197 205 206 207 208 198 199 200 201 202 204 203 165 164 166 167 163 168 162 161 160 154 153 155 156 159 157 158 145 146 144 143 142 147 148 152 149 150 151 141 140 139 136 135 134 133 132 131 130 129 137 138 128 116 115 114 113 112 111 110 109 108 173 174 172 170 169 171 175 176 177 178 179 180 181 184 185 183 182 186 188 187 540 538 537 539 478 477 479 480 476 475 482 481 483 536 535 487 534 488 489 486 484 485 493 524 521 522 523 526 525 492 491 490 529 528 511 510 509 513 512 527 514 515 516 517 520 519 518 494 495 470 469 471 472 473 474 567 566 565 564 563 562 561 560 558 559 550 549 548 551 101 102 100 99 552 553 554 555 45 46 91 92 90 87 85 86 81 80 79 88 89 93 94 97 95 96 98 103 547 546 545 544 543 541 542 107 104 105 106 118 119 120 121 122 123 117 126 127 125 124 69 68 70 71 72 65 66 67 64 76 75 73 74 77 78 62 63 61 60 59 58 57 82 83 84 51 52 53